g3 0 1 0	# problem airport
 84 42 1 0 0	# vars, constraints, objectives, ranges, eqns
 42 1	# nonlinear constraints, objectives
 0 0	# network constraints: nonlinear, linear
 84 84 84	# nonlinear vars in constraints, objectives, both
 0 0 0 1	# linear network variables; functions; arith, flags
 0 0 0 0 0	# discrete variables: binary, integer, nonlinear (b,c,o)
 84 84	# nonzeros in Jacobian, gradients
 0 0	# max name lengths: constraints, variables
 0 0 0 0 0	# common exprs: b,c,o,c1,o1
b
0 -10 10
0 -10 10
0 -10 10
0 -10 10
0 -10 10
0 -10 10
0 -10 10
0 -10 10
0 -10 10
0 -10 10
0 -10 10
0 -10 10
0 -10 10
0 -10 10
0 -10 10
0 -10 10
0 -10 10
0 -10 10
0 -10 10
0 -10 10
0 -10 10
0 -10 10
0 -10 10
0 -10 10
0 -10 10
0 -10 10
0 -10 10
0 -10 10
0 -10 10
0 -10 10
0 -10 10
0 -10 10
0 -10 10
0 -10 10
0 -10 10
0 -10 10
0 -10 10
0 -10 10
0 -10 10
0 -10 10
0 -10 10
0 -10 10
0 -10 10
0 -10 10
0 -10 10
0 -10 10
0 -10 10
0 -10 10
0 -10 10
0 -10 10
0 -10 10
0 -10 10
0 -10 10
0 -10 10
0 -10 10
0 -10 10
0 -10 10
0 -10 10
0 -10 10
0 -10 10
0 -10 10
0 -10 10
0 -10 10
0 -10 10
0 -10 10
0 -10 10
0 -10 10
0 -10 10
0 -10 10
0 -10 10
0 -10 10
0 -10 10
0 -10 10
0 -10 10
0 -10 10
0 -10 10
0 -10 10
0 -10 10
0 -10 10
0 -10 10
0 -10 10
0 -10 10
0 -10 10
0 -10 10
r
1 0.09
1 0.3
1 0.09
1 0.45
1 0.5
1 0.04
1 0.1
1 0.02
1 0.02
1 0.07
1 0.4
1 0.045
1 0.05
1 0.056
1 0.36
1 0.08
1 0.07
1 0.36
1 0.67
1 0.38
1 0.37
1 0.05
1 0.4
1 0.66
1 0.05
1 0.07
1 0.08
1 0.3
1 0.31
1 0.49
1 0.09
1 0.46
1 0.12
1 0.07
1 0.07
1 0.09
1 0.05
1 0.13
1 0.16
1 0.46
1 0.25
1 0.1
C0
o0
o5
o0
n6.3
v0
n2
o5
o0
n-8
v42
n2
C1
o0
o5
o0
n7.8
v1
n2
o5
o0
n-5.1
v43
n2
C2
o0
o5
o0
n9
v2
n2
o5
o0
n-2
v44
n2
C3
o0
o5
o0
n7.2
v3
n2
o5
o0
n-2.6
v45
n2
C4
o0
o5
o0
n5.7
v4
n2
o5
o0
n-5.5
v46
n2
C5
o0
o5
o0
n1.9
v5
n2
o5
o0
n-7.1
v47
n2
C6
o0
o5
o0
n3.5
v6
n2
o5
o0
n-5.9
v48
n2
C7
o0
o5
o0
n0.5
v7
n2
o5
o0
n-6.6
v49
n2
C8
o0
o5
o0
n-1.4
v8
n2
o5
o0
n-6.1
v50
n2
C9
o0
o5
o0
n-4
v9
n2
o5
o0
n-5.6
v51
n2
C10
o0
o5
o0
n-2.1
v10
n2
o5
o0
n-4.9
v52
n2
C11
o0
o5
o0
n-5.5
v11
n2
o5
o0
n-4.7
v53
n2
C12
o0
o5
o0
n-5.7
v12
n2
o5
o0
n-4.3
v54
n2
C13
o0
o5
o0
n-5.7
v13
n2
o5
o0
n-3.6
v55
n2
C14
o0
o5
o0
n-3.8
v14
n2
o5
o0
n-4.1
v56
n2
C15
o0
o5
o0
n-5.3
v15
n2
o5
o0
n-3
v57
n2
C16
o0
o5
o0
n-4.7
v16
n2
o5
o0
n-2.4
v58
n2
C17
o0
o5
o0
n-3.3
v17
n2
o5
o0
n-3
v59
n2
C18
o0
o5
v18
n2
o5
o0
n-4.7
v60
n2
C19
o0
o5
o0
n1
v19
n2
o5
o0
n-3.4
v61
n2
C20
o0
o5
o0
n0.4
v20
n2
o5
o0
n-2.3
v62
n2
C21
o0
o5
o0
n-4.2
v21
n2
o5
o0
n-1.5
v63
n2
C22
o0
o5
o0
n-3.2
v22
n2
o5
o0
n-0.5
v64
n2
C23
o0
o5
o0
n-1.7
v23
n2
o5
o0
n1.7
v65
n2
C24
o0
o5
o0
n-3.3
v24
n2
o5
o0
n2
v66
n2
C25
o0
o5
o0
n-2
v25
n2
o5
o0
n3.1
v67
n2
C26
o0
o5
o0
n-0.7
v26
n2
o5
o0
n3.5
v68
n2
C27
o0
o5
o0
n-0.1
v27
n2
o5
o0
n2.4
v69
n2
C28
o0
o5
o0
n0.1
v28
n2
o5
o0
n1.3
v70
n2
C29
o0
o5
o0
n3.5
v29
n2
o5
v71
n2
C30
o0
o5
o0
n4
v30
n2
o5
o0
n1.7
v72
n2
C31
o0
o5
o0
n2.7
v31
n2
o5
o0
n2.1
v73
n2
C32
o0
o5
o0
n0.5
v32
n2
o5
o0
n0.4
v74
n2
C33
o0
o5
o0
n2.9
v33
n2
o5
o0
n2.9
v75
n2
C34
o0
o5
o0
n1.2
v34
n2
o5
o0
n3.4
v76
n2
C35
o0
o5
o0
n0.4
v35
n2
o5
o0
n4.3
v77
n2
C36
o0
o5
o0
n0.1
v36
n2
o5
o0
n5.2
v78
n2
C37
o0
o5
o0
n1
v37
n2
o5
o0
n6.5
v79
n2
C38
o0
o5
o0
n1.7
v38
n2
o5
o0
n7.5
v80
n2
C39
o0
o5
o0
n2.1
v39
n2
o5
o0
n6.4
v81
n2
C40
o0
o5
o0
n1.8
v40
n2
o5
o0
n5.1
v82
n2
C41
o0
o5
v41
n2
o5
v83
n2
O0 0
o54
1722
o5
o1
v0
v1
n2
o5
o1
v42
v43
n2
o5
o1
v0
v2
n2
o5
o1
v42
v44
n2
o5
o1
v0
v3
n2
o5
o1
v42
v45
n2
o5
o1
v0
v4
n2
o5
o1
v42
v46
n2
o5
o1
v0
v5
n2
o5
o1
v42
v47
n2
o5
o1
v0
v6
n2
o5
o1
v42
v48
n2
o5
o1
v0
v7
n2
o5
o1
v42
v49
n2
o5
o1
v0
v8
n2
o5
o1
v42
v50
n2
o5
o1
v0
v9
n2
o5
o1
v42
v51
n2
o5
o1
v0
v10
n2
o5
o1
v42
v52
n2
o5
o1
v0
v11
n2
o5
o1
v42
v53
n2
o5
o1
v0
v12
n2
o5
o1
v42
v54
n2
o5
o1
v0
v13
n2
o5
o1
v42
v55
n2
o5
o1
v0
v14
n2
o5
o1
v42
v56
n2
o5
o1
v0
v15
n2
o5
o1
v42
v57
n2
o5
o1
v0
v16
n2
o5
o1
v42
v58
n2
o5
o1
v0
v17
n2
o5
o1
v42
v59
n2
o5
o1
v0
v18
n2
o5
o1
v42
v60
n2
o5
o1
v0
v19
n2
o5
o1
v42
v61
n2
o5
o1
v0
v20
n2
o5
o1
v42
v62
n2
o5
o1
v0
v21
n2
o5
o1
v42
v63
n2
o5
o1
v0
v22
n2
o5
o1
v42
v64
n2
o5
o1
v0
v23
n2
o5
o1
v42
v65
n2
o5
o1
v0
v24
n2
o5
o1
v42
v66
n2
o5
o1
v0
v25
n2
o5
o1
v42
v67
n2
o5
o1
v0
v26
n2
o5
o1
v42
v68
n2
o5
o1
v0
v27
n2
o5
o1
v42
v69
n2
o5
o1
v0
v28
n2
o5
o1
v42
v70
n2
o5
o1
v0
v29
n2
o5
o1
v42
v71
n2
o5
o1
v0
v30
n2
o5
o1
v42
v72
n2
o5
o1
v0
v31
n2
o5
o1
v42
v73
n2
o5
o1
v0
v32
n2
o5
o1
v42
v74
n2
o5
o1
v0
v33
n2
o5
o1
v42
v75
n2
o5
o1
v0
v34
n2
o5
o1
v42
v76
n2
o5
o1
v0
v35
n2
o5
o1
v42
v77
n2
o5
o1
v0
v36
n2
o5
o1
v42
v78
n2
o5
o1
v0
v37
n2
o5
o1
v42
v79
n2
o5
o1
v0
v38
n2
o5
o1
v42
v80
n2
o5
o1
v0
v39
n2
o5
o1
v42
v81
n2
o5
o1
v0
v40
n2
o5
o1
v42
v82
n2
o5
o1
v0
v41
n2
o5
o1
v42
v83
n2
o5
o1
v1
v2
n2
o5
o1
v43
v44
n2
o5
o1
v1
v3
n2
o5
o1
v43
v45
n2
o5
o1
v1
v4
n2
o5
o1
v43
v46
n2
o5
o1
v1
v5
n2
o5
o1
v43
v47
n2
o5
o1
v1
v6
n2
o5
o1
v43
v48
n2
o5
o1
v1
v7
n2
o5
o1
v43
v49
n2
o5
o1
v1
v8
n2
o5
o1
v43
v50
n2
o5
o1
v1
v9
n2
o5
o1
v43
v51
n2
o5
o1
v1
v10
n2
o5
o1
v43
v52
n2
o5
o1
v1
v11
n2
o5
o1
v43
v53
n2
o5
o1
v1
v12
n2
o5
o1
v43
v54
n2
o5
o1
v1
v13
n2
o5
o1
v43
v55
n2
o5
o1
v1
v14
n2
o5
o1
v43
v56
n2
o5
o1
v1
v15
n2
o5
o1
v43
v57
n2
o5
o1
v1
v16
n2
o5
o1
v43
v58
n2
o5
o1
v1
v17
n2
o5
o1
v43
v59
n2
o5
o1
v1
v18
n2
o5
o1
v43
v60
n2
o5
o1
v1
v19
n2
o5
o1
v43
v61
n2
o5
o1
v1
v20
n2
o5
o1
v43
v62
n2
o5
o1
v1
v21
n2
o5
o1
v43
v63
n2
o5
o1
v1
v22
n2
o5
o1
v43
v64
n2
o5
o1
v1
v23
n2
o5
o1
v43
v65
n2
o5
o1
v1
v24
n2
o5
o1
v43
v66
n2
o5
o1
v1
v25
n2
o5
o1
v43
v67
n2
o5
o1
v1
v26
n2
o5
o1
v43
v68
n2
o5
o1
v1
v27
n2
o5
o1
v43
v69
n2
o5
o1
v1
v28
n2
o5
o1
v43
v70
n2
o5
o1
v1
v29
n2
o5
o1
v43
v71
n2
o5
o1
v1
v30
n2
o5
o1
v43
v72
n2
o5
o1
v1
v31
n2
o5
o1
v43
v73
n2
o5
o1
v1
v32
n2
o5
o1
v43
v74
n2
o5
o1
v1
v33
n2
o5
o1
v43
v75
n2
o5
o1
v1
v34
n2
o5
o1
v43
v76
n2
o5
o1
v1
v35
n2
o5
o1
v43
v77
n2
o5
o1
v1
v36
n2
o5
o1
v43
v78
n2
o5
o1
v1
v37
n2
o5
o1
v43
v79
n2
o5
o1
v1
v38
n2
o5
o1
v43
v80
n2
o5
o1
v1
v39
n2
o5
o1
v43
v81
n2
o5
o1
v1
v40
n2
o5
o1
v43
v82
n2
o5
o1
v1
v41
n2
o5
o1
v43
v83
n2
o5
o1
v2
v3
n2
o5
o1
v44
v45
n2
o5
o1
v2
v4
n2
o5
o1
v44
v46
n2
o5
o1
v2
v5
n2
o5
o1
v44
v47
n2
o5
o1
v2
v6
n2
o5
o1
v44
v48
n2
o5
o1
v2
v7
n2
o5
o1
v44
v49
n2
o5
o1
v2
v8
n2
o5
o1
v44
v50
n2
o5
o1
v2
v9
n2
o5
o1
v44
v51
n2
o5
o1
v2
v10
n2
o5
o1
v44
v52
n2
o5
o1
v2
v11
n2
o5
o1
v44
v53
n2
o5
o1
v2
v12
n2
o5
o1
v44
v54
n2
o5
o1
v2
v13
n2
o5
o1
v44
v55
n2
o5
o1
v2
v14
n2
o5
o1
v44
v56
n2
o5
o1
v2
v15
n2
o5
o1
v44
v57
n2
o5
o1
v2
v16
n2
o5
o1
v44
v58
n2
o5
o1
v2
v17
n2
o5
o1
v44
v59
n2
o5
o1
v2
v18
n2
o5
o1
v44
v60
n2
o5
o1
v2
v19
n2
o5
o1
v44
v61
n2
o5
o1
v2
v20
n2
o5
o1
v44
v62
n2
o5
o1
v2
v21
n2
o5
o1
v44
v63
n2
o5
o1
v2
v22
n2
o5
o1
v44
v64
n2
o5
o1
v2
v23
n2
o5
o1
v44
v65
n2
o5
o1
v2
v24
n2
o5
o1
v44
v66
n2
o5
o1
v2
v25
n2
o5
o1
v44
v67
n2
o5
o1
v2
v26
n2
o5
o1
v44
v68
n2
o5
o1
v2
v27
n2
o5
o1
v44
v69
n2
o5
o1
v2
v28
n2
o5
o1
v44
v70
n2
o5
o1
v2
v29
n2
o5
o1
v44
v71
n2
o5
o1
v2
v30
n2
o5
o1
v44
v72
n2
o5
o1
v2
v31
n2
o5
o1
v44
v73
n2
o5
o1
v2
v32
n2
o5
o1
v44
v74
n2
o5
o1
v2
v33
n2
o5
o1
v44
v75
n2
o5
o1
v2
v34
n2
o5
o1
v44
v76
n2
o5
o1
v2
v35
n2
o5
o1
v44
v77
n2
o5
o1
v2
v36
n2
o5
o1
v44
v78
n2
o5
o1
v2
v37
n2
o5
o1
v44
v79
n2
o5
o1
v2
v38
n2
o5
o1
v44
v80
n2
o5
o1
v2
v39
n2
o5
o1
v44
v81
n2
o5
o1
v2
v40
n2
o5
o1
v44
v82
n2
o5
o1
v2
v41
n2
o5
o1
v44
v83
n2
o5
o1
v3
v4
n2
o5
o1
v45
v46
n2
o5
o1
v3
v5
n2
o5
o1
v45
v47
n2
o5
o1
v3
v6
n2
o5
o1
v45
v48
n2
o5
o1
v3
v7
n2
o5
o1
v45
v49
n2
o5
o1
v3
v8
n2
o5
o1
v45
v50
n2
o5
o1
v3
v9
n2
o5
o1
v45
v51
n2
o5
o1
v3
v10
n2
o5
o1
v45
v52
n2
o5
o1
v3
v11
n2
o5
o1
v45
v53
n2
o5
o1
v3
v12
n2
o5
o1
v45
v54
n2
o5
o1
v3
v13
n2
o5
o1
v45
v55
n2
o5
o1
v3
v14
n2
o5
o1
v45
v56
n2
o5
o1
v3
v15
n2
o5
o1
v45
v57
n2
o5
o1
v3
v16
n2
o5
o1
v45
v58
n2
o5
o1
v3
v17
n2
o5
o1
v45
v59
n2
o5
o1
v3
v18
n2
o5
o1
v45
v60
n2
o5
o1
v3
v19
n2
o5
o1
v45
v61
n2
o5
o1
v3
v20
n2
o5
o1
v45
v62
n2
o5
o1
v3
v21
n2
o5
o1
v45
v63
n2
o5
o1
v3
v22
n2
o5
o1
v45
v64
n2
o5
o1
v3
v23
n2
o5
o1
v45
v65
n2
o5
o1
v3
v24
n2
o5
o1
v45
v66
n2
o5
o1
v3
v25
n2
o5
o1
v45
v67
n2
o5
o1
v3
v26
n2
o5
o1
v45
v68
n2
o5
o1
v3
v27
n2
o5
o1
v45
v69
n2
o5
o1
v3
v28
n2
o5
o1
v45
v70
n2
o5
o1
v3
v29
n2
o5
o1
v45
v71
n2
o5
o1
v3
v30
n2
o5
o1
v45
v72
n2
o5
o1
v3
v31
n2
o5
o1
v45
v73
n2
o5
o1
v3
v32
n2
o5
o1
v45
v74
n2
o5
o1
v3
v33
n2
o5
o1
v45
v75
n2
o5
o1
v3
v34
n2
o5
o1
v45
v76
n2
o5
o1
v3
v35
n2
o5
o1
v45
v77
n2
o5
o1
v3
v36
n2
o5
o1
v45
v78
n2
o5
o1
v3
v37
n2
o5
o1
v45
v79
n2
o5
o1
v3
v38
n2
o5
o1
v45
v80
n2
o5
o1
v3
v39
n2
o5
o1
v45
v81
n2
o5
o1
v3
v40
n2
o5
o1
v45
v82
n2
o5
o1
v3
v41
n2
o5
o1
v45
v83
n2
o5
o1
v4
v5
n2
o5
o1
v46
v47
n2
o5
o1
v4
v6
n2
o5
o1
v46
v48
n2
o5
o1
v4
v7
n2
o5
o1
v46
v49
n2
o5
o1
v4
v8
n2
o5
o1
v46
v50
n2
o5
o1
v4
v9
n2
o5
o1
v46
v51
n2
o5
o1
v4
v10
n2
o5
o1
v46
v52
n2
o5
o1
v4
v11
n2
o5
o1
v46
v53
n2
o5
o1
v4
v12
n2
o5
o1
v46
v54
n2
o5
o1
v4
v13
n2
o5
o1
v46
v55
n2
o5
o1
v4
v14
n2
o5
o1
v46
v56
n2
o5
o1
v4
v15
n2
o5
o1
v46
v57
n2
o5
o1
v4
v16
n2
o5
o1
v46
v58
n2
o5
o1
v4
v17
n2
o5
o1
v46
v59
n2
o5
o1
v4
v18
n2
o5
o1
v46
v60
n2
o5
o1
v4
v19
n2
o5
o1
v46
v61
n2
o5
o1
v4
v20
n2
o5
o1
v46
v62
n2
o5
o1
v4
v21
n2
o5
o1
v46
v63
n2
o5
o1
v4
v22
n2
o5
o1
v46
v64
n2
o5
o1
v4
v23
n2
o5
o1
v46
v65
n2
o5
o1
v4
v24
n2
o5
o1
v46
v66
n2
o5
o1
v4
v25
n2
o5
o1
v46
v67
n2
o5
o1
v4
v26
n2
o5
o1
v46
v68
n2
o5
o1
v4
v27
n2
o5
o1
v46
v69
n2
o5
o1
v4
v28
n2
o5
o1
v46
v70
n2
o5
o1
v4
v29
n2
o5
o1
v46
v71
n2
o5
o1
v4
v30
n2
o5
o1
v46
v72
n2
o5
o1
v4
v31
n2
o5
o1
v46
v73
n2
o5
o1
v4
v32
n2
o5
o1
v46
v74
n2
o5
o1
v4
v33
n2
o5
o1
v46
v75
n2
o5
o1
v4
v34
n2
o5
o1
v46
v76
n2
o5
o1
v4
v35
n2
o5
o1
v46
v77
n2
o5
o1
v4
v36
n2
o5
o1
v46
v78
n2
o5
o1
v4
v37
n2
o5
o1
v46
v79
n2
o5
o1
v4
v38
n2
o5
o1
v46
v80
n2
o5
o1
v4
v39
n2
o5
o1
v46
v81
n2
o5
o1
v4
v40
n2
o5
o1
v46
v82
n2
o5
o1
v4
v41
n2
o5
o1
v46
v83
n2
o5
o1
v5
v6
n2
o5
o1
v47
v48
n2
o5
o1
v5
v7
n2
o5
o1
v47
v49
n2
o5
o1
v5
v8
n2
o5
o1
v47
v50
n2
o5
o1
v5
v9
n2
o5
o1
v47
v51
n2
o5
o1
v5
v10
n2
o5
o1
v47
v52
n2
o5
o1
v5
v11
n2
o5
o1
v47
v53
n2
o5
o1
v5
v12
n2
o5
o1
v47
v54
n2
o5
o1
v5
v13
n2
o5
o1
v47
v55
n2
o5
o1
v5
v14
n2
o5
o1
v47
v56
n2
o5
o1
v5
v15
n2
o5
o1
v47
v57
n2
o5
o1
v5
v16
n2
o5
o1
v47
v58
n2
o5
o1
v5
v17
n2
o5
o1
v47
v59
n2
o5
o1
v5
v18
n2
o5
o1
v47
v60
n2
o5
o1
v5
v19
n2
o5
o1
v47
v61
n2
o5
o1
v5
v20
n2
o5
o1
v47
v62
n2
o5
o1
v5
v21
n2
o5
o1
v47
v63
n2
o5
o1
v5
v22
n2
o5
o1
v47
v64
n2
o5
o1
v5
v23
n2
o5
o1
v47
v65
n2
o5
o1
v5
v24
n2
o5
o1
v47
v66
n2
o5
o1
v5
v25
n2
o5
o1
v47
v67
n2
o5
o1
v5
v26
n2
o5
o1
v47
v68
n2
o5
o1
v5
v27
n2
o5
o1
v47
v69
n2
o5
o1
v5
v28
n2
o5
o1
v47
v70
n2
o5
o1
v5
v29
n2
o5
o1
v47
v71
n2
o5
o1
v5
v30
n2
o5
o1
v47
v72
n2
o5
o1
v5
v31
n2
o5
o1
v47
v73
n2
o5
o1
v5
v32
n2
o5
o1
v47
v74
n2
o5
o1
v5
v33
n2
o5
o1
v47
v75
n2
o5
o1
v5
v34
n2
o5
o1
v47
v76
n2
o5
o1
v5
v35
n2
o5
o1
v47
v77
n2
o5
o1
v5
v36
n2
o5
o1
v47
v78
n2
o5
o1
v5
v37
n2
o5
o1
v47
v79
n2
o5
o1
v5
v38
n2
o5
o1
v47
v80
n2
o5
o1
v5
v39
n2
o5
o1
v47
v81
n2
o5
o1
v5
v40
n2
o5
o1
v47
v82
n2
o5
o1
v5
v41
n2
o5
o1
v47
v83
n2
o5
o1
v6
v7
n2
o5
o1
v48
v49
n2
o5
o1
v6
v8
n2
o5
o1
v48
v50
n2
o5
o1
v6
v9
n2
o5
o1
v48
v51
n2
o5
o1
v6
v10
n2
o5
o1
v48
v52
n2
o5
o1
v6
v11
n2
o5
o1
v48
v53
n2
o5
o1
v6
v12
n2
o5
o1
v48
v54
n2
o5
o1
v6
v13
n2
o5
o1
v48
v55
n2
o5
o1
v6
v14
n2
o5
o1
v48
v56
n2
o5
o1
v6
v15
n2
o5
o1
v48
v57
n2
o5
o1
v6
v16
n2
o5
o1
v48
v58
n2
o5
o1
v6
v17
n2
o5
o1
v48
v59
n2
o5
o1
v6
v18
n2
o5
o1
v48
v60
n2
o5
o1
v6
v19
n2
o5
o1
v48
v61
n2
o5
o1
v6
v20
n2
o5
o1
v48
v62
n2
o5
o1
v6
v21
n2
o5
o1
v48
v63
n2
o5
o1
v6
v22
n2
o5
o1
v48
v64
n2
o5
o1
v6
v23
n2
o5
o1
v48
v65
n2
o5
o1
v6
v24
n2
o5
o1
v48
v66
n2
o5
o1
v6
v25
n2
o5
o1
v48
v67
n2
o5
o1
v6
v26
n2
o5
o1
v48
v68
n2
o5
o1
v6
v27
n2
o5
o1
v48
v69
n2
o5
o1
v6
v28
n2
o5
o1
v48
v70
n2
o5
o1
v6
v29
n2
o5
o1
v48
v71
n2
o5
o1
v6
v30
n2
o5
o1
v48
v72
n2
o5
o1
v6
v31
n2
o5
o1
v48
v73
n2
o5
o1
v6
v32
n2
o5
o1
v48
v74
n2
o5
o1
v6
v33
n2
o5
o1
v48
v75
n2
o5
o1
v6
v34
n2
o5
o1
v48
v76
n2
o5
o1
v6
v35
n2
o5
o1
v48
v77
n2
o5
o1
v6
v36
n2
o5
o1
v48
v78
n2
o5
o1
v6
v37
n2
o5
o1
v48
v79
n2
o5
o1
v6
v38
n2
o5
o1
v48
v80
n2
o5
o1
v6
v39
n2
o5
o1
v48
v81
n2
o5
o1
v6
v40
n2
o5
o1
v48
v82
n2
o5
o1
v6
v41
n2
o5
o1
v48
v83
n2
o5
o1
v7
v8
n2
o5
o1
v49
v50
n2
o5
o1
v7
v9
n2
o5
o1
v49
v51
n2
o5
o1
v7
v10
n2
o5
o1
v49
v52
n2
o5
o1
v7
v11
n2
o5
o1
v49
v53
n2
o5
o1
v7
v12
n2
o5
o1
v49
v54
n2
o5
o1
v7
v13
n2
o5
o1
v49
v55
n2
o5
o1
v7
v14
n2
o5
o1
v49
v56
n2
o5
o1
v7
v15
n2
o5
o1
v49
v57
n2
o5
o1
v7
v16
n2
o5
o1
v49
v58
n2
o5
o1
v7
v17
n2
o5
o1
v49
v59
n2
o5
o1
v7
v18
n2
o5
o1
v49
v60
n2
o5
o1
v7
v19
n2
o5
o1
v49
v61
n2
o5
o1
v7
v20
n2
o5
o1
v49
v62
n2
o5
o1
v7
v21
n2
o5
o1
v49
v63
n2
o5
o1
v7
v22
n2
o5
o1
v49
v64
n2
o5
o1
v7
v23
n2
o5
o1
v49
v65
n2
o5
o1
v7
v24
n2
o5
o1
v49
v66
n2
o5
o1
v7
v25
n2
o5
o1
v49
v67
n2
o5
o1
v7
v26
n2
o5
o1
v49
v68
n2
o5
o1
v7
v27
n2
o5
o1
v49
v69
n2
o5
o1
v7
v28
n2
o5
o1
v49
v70
n2
o5
o1
v7
v29
n2
o5
o1
v49
v71
n2
o5
o1
v7
v30
n2
o5
o1
v49
v72
n2
o5
o1
v7
v31
n2
o5
o1
v49
v73
n2
o5
o1
v7
v32
n2
o5
o1
v49
v74
n2
o5
o1
v7
v33
n2
o5
o1
v49
v75
n2
o5
o1
v7
v34
n2
o5
o1
v49
v76
n2
o5
o1
v7
v35
n2
o5
o1
v49
v77
n2
o5
o1
v7
v36
n2
o5
o1
v49
v78
n2
o5
o1
v7
v37
n2
o5
o1
v49
v79
n2
o5
o1
v7
v38
n2
o5
o1
v49
v80
n2
o5
o1
v7
v39
n2
o5
o1
v49
v81
n2
o5
o1
v7
v40
n2
o5
o1
v49
v82
n2
o5
o1
v7
v41
n2
o5
o1
v49
v83
n2
o5
o1
v8
v9
n2
o5
o1
v50
v51
n2
o5
o1
v8
v10
n2
o5
o1
v50
v52
n2
o5
o1
v8
v11
n2
o5
o1
v50
v53
n2
o5
o1
v8
v12
n2
o5
o1
v50
v54
n2
o5
o1
v8
v13
n2
o5
o1
v50
v55
n2
o5
o1
v8
v14
n2
o5
o1
v50
v56
n2
o5
o1
v8
v15
n2
o5
o1
v50
v57
n2
o5
o1
v8
v16
n2
o5
o1
v50
v58
n2
o5
o1
v8
v17
n2
o5
o1
v50
v59
n2
o5
o1
v8
v18
n2
o5
o1
v50
v60
n2
o5
o1
v8
v19
n2
o5
o1
v50
v61
n2
o5
o1
v8
v20
n2
o5
o1
v50
v62
n2
o5
o1
v8
v21
n2
o5
o1
v50
v63
n2
o5
o1
v8
v22
n2
o5
o1
v50
v64
n2
o5
o1
v8
v23
n2
o5
o1
v50
v65
n2
o5
o1
v8
v24
n2
o5
o1
v50
v66
n2
o5
o1
v8
v25
n2
o5
o1
v50
v67
n2
o5
o1
v8
v26
n2
o5
o1
v50
v68
n2
o5
o1
v8
v27
n2
o5
o1
v50
v69
n2
o5
o1
v8
v28
n2
o5
o1
v50
v70
n2
o5
o1
v8
v29
n2
o5
o1
v50
v71
n2
o5
o1
v8
v30
n2
o5
o1
v50
v72
n2
o5
o1
v8
v31
n2
o5
o1
v50
v73
n2
o5
o1
v8
v32
n2
o5
o1
v50
v74
n2
o5
o1
v8
v33
n2
o5
o1
v50
v75
n2
o5
o1
v8
v34
n2
o5
o1
v50
v76
n2
o5
o1
v8
v35
n2
o5
o1
v50
v77
n2
o5
o1
v8
v36
n2
o5
o1
v50
v78
n2
o5
o1
v8
v37
n2
o5
o1
v50
v79
n2
o5
o1
v8
v38
n2
o5
o1
v50
v80
n2
o5
o1
v8
v39
n2
o5
o1
v50
v81
n2
o5
o1
v8
v40
n2
o5
o1
v50
v82
n2
o5
o1
v8
v41
n2
o5
o1
v50
v83
n2
o5
o1
v9
v10
n2
o5
o1
v51
v52
n2
o5
o1
v9
v11
n2
o5
o1
v51
v53
n2
o5
o1
v9
v12
n2
o5
o1
v51
v54
n2
o5
o1
v9
v13
n2
o5
o1
v51
v55
n2
o5
o1
v9
v14
n2
o5
o1
v51
v56
n2
o5
o1
v9
v15
n2
o5
o1
v51
v57
n2
o5
o1
v9
v16
n2
o5
o1
v51
v58
n2
o5
o1
v9
v17
n2
o5
o1
v51
v59
n2
o5
o1
v9
v18
n2
o5
o1
v51
v60
n2
o5
o1
v9
v19
n2
o5
o1
v51
v61
n2
o5
o1
v9
v20
n2
o5
o1
v51
v62
n2
o5
o1
v9
v21
n2
o5
o1
v51
v63
n2
o5
o1
v9
v22
n2
o5
o1
v51
v64
n2
o5
o1
v9
v23
n2
o5
o1
v51
v65
n2
o5
o1
v9
v24
n2
o5
o1
v51
v66
n2
o5
o1
v9
v25
n2
o5
o1
v51
v67
n2
o5
o1
v9
v26
n2
o5
o1
v51
v68
n2
o5
o1
v9
v27
n2
o5
o1
v51
v69
n2
o5
o1
v9
v28
n2
o5
o1
v51
v70
n2
o5
o1
v9
v29
n2
o5
o1
v51
v71
n2
o5
o1
v9
v30
n2
o5
o1
v51
v72
n2
o5
o1
v9
v31
n2
o5
o1
v51
v73
n2
o5
o1
v9
v32
n2
o5
o1
v51
v74
n2
o5
o1
v9
v33
n2
o5
o1
v51
v75
n2
o5
o1
v9
v34
n2
o5
o1
v51
v76
n2
o5
o1
v9
v35
n2
o5
o1
v51
v77
n2
o5
o1
v9
v36
n2
o5
o1
v51
v78
n2
o5
o1
v9
v37
n2
o5
o1
v51
v79
n2
o5
o1
v9
v38
n2
o5
o1
v51
v80
n2
o5
o1
v9
v39
n2
o5
o1
v51
v81
n2
o5
o1
v9
v40
n2
o5
o1
v51
v82
n2
o5
o1
v9
v41
n2
o5
o1
v51
v83
n2
o5
o1
v10
v11
n2
o5
o1
v52
v53
n2
o5
o1
v10
v12
n2
o5
o1
v52
v54
n2
o5
o1
v10
v13
n2
o5
o1
v52
v55
n2
o5
o1
v10
v14
n2
o5
o1
v52
v56
n2
o5
o1
v10
v15
n2
o5
o1
v52
v57
n2
o5
o1
v10
v16
n2
o5
o1
v52
v58
n2
o5
o1
v10
v17
n2
o5
o1
v52
v59
n2
o5
o1
v10
v18
n2
o5
o1
v52
v60
n2
o5
o1
v10
v19
n2
o5
o1
v52
v61
n2
o5
o1
v10
v20
n2
o5
o1
v52
v62
n2
o5
o1
v10
v21
n2
o5
o1
v52
v63
n2
o5
o1
v10
v22
n2
o5
o1
v52
v64
n2
o5
o1
v10
v23
n2
o5
o1
v52
v65
n2
o5
o1
v10
v24
n2
o5
o1
v52
v66
n2
o5
o1
v10
v25
n2
o5
o1
v52
v67
n2
o5
o1
v10
v26
n2
o5
o1
v52
v68
n2
o5
o1
v10
v27
n2
o5
o1
v52
v69
n2
o5
o1
v10
v28
n2
o5
o1
v52
v70
n2
o5
o1
v10
v29
n2
o5
o1
v52
v71
n2
o5
o1
v10
v30
n2
o5
o1
v52
v72
n2
o5
o1
v10
v31
n2
o5
o1
v52
v73
n2
o5
o1
v10
v32
n2
o5
o1
v52
v74
n2
o5
o1
v10
v33
n2
o5
o1
v52
v75
n2
o5
o1
v10
v34
n2
o5
o1
v52
v76
n2
o5
o1
v10
v35
n2
o5
o1
v52
v77
n2
o5
o1
v10
v36
n2
o5
o1
v52
v78
n2
o5
o1
v10
v37
n2
o5
o1
v52
v79
n2
o5
o1
v10
v38
n2
o5
o1
v52
v80
n2
o5
o1
v10
v39
n2
o5
o1
v52
v81
n2
o5
o1
v10
v40
n2
o5
o1
v52
v82
n2
o5
o1
v10
v41
n2
o5
o1
v52
v83
n2
o5
o1
v11
v12
n2
o5
o1
v53
v54
n2
o5
o1
v11
v13
n2
o5
o1
v53
v55
n2
o5
o1
v11
v14
n2
o5
o1
v53
v56
n2
o5
o1
v11
v15
n2
o5
o1
v53
v57
n2
o5
o1
v11
v16
n2
o5
o1
v53
v58
n2
o5
o1
v11
v17
n2
o5
o1
v53
v59
n2
o5
o1
v11
v18
n2
o5
o1
v53
v60
n2
o5
o1
v11
v19
n2
o5
o1
v53
v61
n2
o5
o1
v11
v20
n2
o5
o1
v53
v62
n2
o5
o1
v11
v21
n2
o5
o1
v53
v63
n2
o5
o1
v11
v22
n2
o5
o1
v53
v64
n2
o5
o1
v11
v23
n2
o5
o1
v53
v65
n2
o5
o1
v11
v24
n2
o5
o1
v53
v66
n2
o5
o1
v11
v25
n2
o5
o1
v53
v67
n2
o5
o1
v11
v26
n2
o5
o1
v53
v68
n2
o5
o1
v11
v27
n2
o5
o1
v53
v69
n2
o5
o1
v11
v28
n2
o5
o1
v53
v70
n2
o5
o1
v11
v29
n2
o5
o1
v53
v71
n2
o5
o1
v11
v30
n2
o5
o1
v53
v72
n2
o5
o1
v11
v31
n2
o5
o1
v53
v73
n2
o5
o1
v11
v32
n2
o5
o1
v53
v74
n2
o5
o1
v11
v33
n2
o5
o1
v53
v75
n2
o5
o1
v11
v34
n2
o5
o1
v53
v76
n2
o5
o1
v11
v35
n2
o5
o1
v53
v77
n2
o5
o1
v11
v36
n2
o5
o1
v53
v78
n2
o5
o1
v11
v37
n2
o5
o1
v53
v79
n2
o5
o1
v11
v38
n2
o5
o1
v53
v80
n2
o5
o1
v11
v39
n2
o5
o1
v53
v81
n2
o5
o1
v11
v40
n2
o5
o1
v53
v82
n2
o5
o1
v11
v41
n2
o5
o1
v53
v83
n2
o5
o1
v12
v13
n2
o5
o1
v54
v55
n2
o5
o1
v12
v14
n2
o5
o1
v54
v56
n2
o5
o1
v12
v15
n2
o5
o1
v54
v57
n2
o5
o1
v12
v16
n2
o5
o1
v54
v58
n2
o5
o1
v12
v17
n2
o5
o1
v54
v59
n2
o5
o1
v12
v18
n2
o5
o1
v54
v60
n2
o5
o1
v12
v19
n2
o5
o1
v54
v61
n2
o5
o1
v12
v20
n2
o5
o1
v54
v62
n2
o5
o1
v12
v21
n2
o5
o1
v54
v63
n2
o5
o1
v12
v22
n2
o5
o1
v54
v64
n2
o5
o1
v12
v23
n2
o5
o1
v54
v65
n2
o5
o1
v12
v24
n2
o5
o1
v54
v66
n2
o5
o1
v12
v25
n2
o5
o1
v54
v67
n2
o5
o1
v12
v26
n2
o5
o1
v54
v68
n2
o5
o1
v12
v27
n2
o5
o1
v54
v69
n2
o5
o1
v12
v28
n2
o5
o1
v54
v70
n2
o5
o1
v12
v29
n2
o5
o1
v54
v71
n2
o5
o1
v12
v30
n2
o5
o1
v54
v72
n2
o5
o1
v12
v31
n2
o5
o1
v54
v73
n2
o5
o1
v12
v32
n2
o5
o1
v54
v74
n2
o5
o1
v12
v33
n2
o5
o1
v54
v75
n2
o5
o1
v12
v34
n2
o5
o1
v54
v76
n2
o5
o1
v12
v35
n2
o5
o1
v54
v77
n2
o5
o1
v12
v36
n2
o5
o1
v54
v78
n2
o5
o1
v12
v37
n2
o5
o1
v54
v79
n2
o5
o1
v12
v38
n2
o5
o1
v54
v80
n2
o5
o1
v12
v39
n2
o5
o1
v54
v81
n2
o5
o1
v12
v40
n2
o5
o1
v54
v82
n2
o5
o1
v12
v41
n2
o5
o1
v54
v83
n2
o5
o1
v13
v14
n2
o5
o1
v55
v56
n2
o5
o1
v13
v15
n2
o5
o1
v55
v57
n2
o5
o1
v13
v16
n2
o5
o1
v55
v58
n2
o5
o1
v13
v17
n2
o5
o1
v55
v59
n2
o5
o1
v13
v18
n2
o5
o1
v55
v60
n2
o5
o1
v13
v19
n2
o5
o1
v55
v61
n2
o5
o1
v13
v20
n2
o5
o1
v55
v62
n2
o5
o1
v13
v21
n2
o5
o1
v55
v63
n2
o5
o1
v13
v22
n2
o5
o1
v55
v64
n2
o5
o1
v13
v23
n2
o5
o1
v55
v65
n2
o5
o1
v13
v24
n2
o5
o1
v55
v66
n2
o5
o1
v13
v25
n2
o5
o1
v55
v67
n2
o5
o1
v13
v26
n2
o5
o1
v55
v68
n2
o5
o1
v13
v27
n2
o5
o1
v55
v69
n2
o5
o1
v13
v28
n2
o5
o1
v55
v70
n2
o5
o1
v13
v29
n2
o5
o1
v55
v71
n2
o5
o1
v13
v30
n2
o5
o1
v55
v72
n2
o5
o1
v13
v31
n2
o5
o1
v55
v73
n2
o5
o1
v13
v32
n2
o5
o1
v55
v74
n2
o5
o1
v13
v33
n2
o5
o1
v55
v75
n2
o5
o1
v13
v34
n2
o5
o1
v55
v76
n2
o5
o1
v13
v35
n2
o5
o1
v55
v77
n2
o5
o1
v13
v36
n2
o5
o1
v55
v78
n2
o5
o1
v13
v37
n2
o5
o1
v55
v79
n2
o5
o1
v13
v38
n2
o5
o1
v55
v80
n2
o5
o1
v13
v39
n2
o5
o1
v55
v81
n2
o5
o1
v13
v40
n2
o5
o1
v55
v82
n2
o5
o1
v13
v41
n2
o5
o1
v55
v83
n2
o5
o1
v14
v15
n2
o5
o1
v56
v57
n2
o5
o1
v14
v16
n2
o5
o1
v56
v58
n2
o5
o1
v14
v17
n2
o5
o1
v56
v59
n2
o5
o1
v14
v18
n2
o5
o1
v56
v60
n2
o5
o1
v14
v19
n2
o5
o1
v56
v61
n2
o5
o1
v14
v20
n2
o5
o1
v56
v62
n2
o5
o1
v14
v21
n2
o5
o1
v56
v63
n2
o5
o1
v14
v22
n2
o5
o1
v56
v64
n2
o5
o1
v14
v23
n2
o5
o1
v56
v65
n2
o5
o1
v14
v24
n2
o5
o1
v56
v66
n2
o5
o1
v14
v25
n2
o5
o1
v56
v67
n2
o5
o1
v14
v26
n2
o5
o1
v56
v68
n2
o5
o1
v14
v27
n2
o5
o1
v56
v69
n2
o5
o1
v14
v28
n2
o5
o1
v56
v70
n2
o5
o1
v14
v29
n2
o5
o1
v56
v71
n2
o5
o1
v14
v30
n2
o5
o1
v56
v72
n2
o5
o1
v14
v31
n2
o5
o1
v56
v73
n2
o5
o1
v14
v32
n2
o5
o1
v56
v74
n2
o5
o1
v14
v33
n2
o5
o1
v56
v75
n2
o5
o1
v14
v34
n2
o5
o1
v56
v76
n2
o5
o1
v14
v35
n2
o5
o1
v56
v77
n2
o5
o1
v14
v36
n2
o5
o1
v56
v78
n2
o5
o1
v14
v37
n2
o5
o1
v56
v79
n2
o5
o1
v14
v38
n2
o5
o1
v56
v80
n2
o5
o1
v14
v39
n2
o5
o1
v56
v81
n2
o5
o1
v14
v40
n2
o5
o1
v56
v82
n2
o5
o1
v14
v41
n2
o5
o1
v56
v83
n2
o5
o1
v15
v16
n2
o5
o1
v57
v58
n2
o5
o1
v15
v17
n2
o5
o1
v57
v59
n2
o5
o1
v15
v18
n2
o5
o1
v57
v60
n2
o5
o1
v15
v19
n2
o5
o1
v57
v61
n2
o5
o1
v15
v20
n2
o5
o1
v57
v62
n2
o5
o1
v15
v21
n2
o5
o1
v57
v63
n2
o5
o1
v15
v22
n2
o5
o1
v57
v64
n2
o5
o1
v15
v23
n2
o5
o1
v57
v65
n2
o5
o1
v15
v24
n2
o5
o1
v57
v66
n2
o5
o1
v15
v25
n2
o5
o1
v57
v67
n2
o5
o1
v15
v26
n2
o5
o1
v57
v68
n2
o5
o1
v15
v27
n2
o5
o1
v57
v69
n2
o5
o1
v15
v28
n2
o5
o1
v57
v70
n2
o5
o1
v15
v29
n2
o5
o1
v57
v71
n2
o5
o1
v15
v30
n2
o5
o1
v57
v72
n2
o5
o1
v15
v31
n2
o5
o1
v57
v73
n2
o5
o1
v15
v32
n2
o5
o1
v57
v74
n2
o5
o1
v15
v33
n2
o5
o1
v57
v75
n2
o5
o1
v15
v34
n2
o5
o1
v57
v76
n2
o5
o1
v15
v35
n2
o5
o1
v57
v77
n2
o5
o1
v15
v36
n2
o5
o1
v57
v78
n2
o5
o1
v15
v37
n2
o5
o1
v57
v79
n2
o5
o1
v15
v38
n2
o5
o1
v57
v80
n2
o5
o1
v15
v39
n2
o5
o1
v57
v81
n2
o5
o1
v15
v40
n2
o5
o1
v57
v82
n2
o5
o1
v15
v41
n2
o5
o1
v57
v83
n2
o5
o1
v16
v17
n2
o5
o1
v58
v59
n2
o5
o1
v16
v18
n2
o5
o1
v58
v60
n2
o5
o1
v16
v19
n2
o5
o1
v58
v61
n2
o5
o1
v16
v20
n2
o5
o1
v58
v62
n2
o5
o1
v16
v21
n2
o5
o1
v58
v63
n2
o5
o1
v16
v22
n2
o5
o1
v58
v64
n2
o5
o1
v16
v23
n2
o5
o1
v58
v65
n2
o5
o1
v16
v24
n2
o5
o1
v58
v66
n2
o5
o1
v16
v25
n2
o5
o1
v58
v67
n2
o5
o1
v16
v26
n2
o5
o1
v58
v68
n2
o5
o1
v16
v27
n2
o5
o1
v58
v69
n2
o5
o1
v16
v28
n2
o5
o1
v58
v70
n2
o5
o1
v16
v29
n2
o5
o1
v58
v71
n2
o5
o1
v16
v30
n2
o5
o1
v58
v72
n2
o5
o1
v16
v31
n2
o5
o1
v58
v73
n2
o5
o1
v16
v32
n2
o5
o1
v58
v74
n2
o5
o1
v16
v33
n2
o5
o1
v58
v75
n2
o5
o1
v16
v34
n2
o5
o1
v58
v76
n2
o5
o1
v16
v35
n2
o5
o1
v58
v77
n2
o5
o1
v16
v36
n2
o5
o1
v58
v78
n2
o5
o1
v16
v37
n2
o5
o1
v58
v79
n2
o5
o1
v16
v38
n2
o5
o1
v58
v80
n2
o5
o1
v16
v39
n2
o5
o1
v58
v81
n2
o5
o1
v16
v40
n2
o5
o1
v58
v82
n2
o5
o1
v16
v41
n2
o5
o1
v58
v83
n2
o5
o1
v17
v18
n2
o5
o1
v59
v60
n2
o5
o1
v17
v19
n2
o5
o1
v59
v61
n2
o5
o1
v17
v20
n2
o5
o1
v59
v62
n2
o5
o1
v17
v21
n2
o5
o1
v59
v63
n2
o5
o1
v17
v22
n2
o5
o1
v59
v64
n2
o5
o1
v17
v23
n2
o5
o1
v59
v65
n2
o5
o1
v17
v24
n2
o5
o1
v59
v66
n2
o5
o1
v17
v25
n2
o5
o1
v59
v67
n2
o5
o1
v17
v26
n2
o5
o1
v59
v68
n2
o5
o1
v17
v27
n2
o5
o1
v59
v69
n2
o5
o1
v17
v28
n2
o5
o1
v59
v70
n2
o5
o1
v17
v29
n2
o5
o1
v59
v71
n2
o5
o1
v17
v30
n2
o5
o1
v59
v72
n2
o5
o1
v17
v31
n2
o5
o1
v59
v73
n2
o5
o1
v17
v32
n2
o5
o1
v59
v74
n2
o5
o1
v17
v33
n2
o5
o1
v59
v75
n2
o5
o1
v17
v34
n2
o5
o1
v59
v76
n2
o5
o1
v17
v35
n2
o5
o1
v59
v77
n2
o5
o1
v17
v36
n2
o5
o1
v59
v78
n2
o5
o1
v17
v37
n2
o5
o1
v59
v79
n2
o5
o1
v17
v38
n2
o5
o1
v59
v80
n2
o5
o1
v17
v39
n2
o5
o1
v59
v81
n2
o5
o1
v17
v40
n2
o5
o1
v59
v82
n2
o5
o1
v17
v41
n2
o5
o1
v59
v83
n2
o5
o1
v18
v19
n2
o5
o1
v60
v61
n2
o5
o1
v18
v20
n2
o5
o1
v60
v62
n2
o5
o1
v18
v21
n2
o5
o1
v60
v63
n2
o5
o1
v18
v22
n2
o5
o1
v60
v64
n2
o5
o1
v18
v23
n2
o5
o1
v60
v65
n2
o5
o1
v18
v24
n2
o5
o1
v60
v66
n2
o5
o1
v18
v25
n2
o5
o1
v60
v67
n2
o5
o1
v18
v26
n2
o5
o1
v60
v68
n2
o5
o1
v18
v27
n2
o5
o1
v60
v69
n2
o5
o1
v18
v28
n2
o5
o1
v60
v70
n2
o5
o1
v18
v29
n2
o5
o1
v60
v71
n2
o5
o1
v18
v30
n2
o5
o1
v60
v72
n2
o5
o1
v18
v31
n2
o5
o1
v60
v73
n2
o5
o1
v18
v32
n2
o5
o1
v60
v74
n2
o5
o1
v18
v33
n2
o5
o1
v60
v75
n2
o5
o1
v18
v34
n2
o5
o1
v60
v76
n2
o5
o1
v18
v35
n2
o5
o1
v60
v77
n2
o5
o1
v18
v36
n2
o5
o1
v60
v78
n2
o5
o1
v18
v37
n2
o5
o1
v60
v79
n2
o5
o1
v18
v38
n2
o5
o1
v60
v80
n2
o5
o1
v18
v39
n2
o5
o1
v60
v81
n2
o5
o1
v18
v40
n2
o5
o1
v60
v82
n2
o5
o1
v18
v41
n2
o5
o1
v60
v83
n2
o5
o1
v19
v20
n2
o5
o1
v61
v62
n2
o5
o1
v19
v21
n2
o5
o1
v61
v63
n2
o5
o1
v19
v22
n2
o5
o1
v61
v64
n2
o5
o1
v19
v23
n2
o5
o1
v61
v65
n2
o5
o1
v19
v24
n2
o5
o1
v61
v66
n2
o5
o1
v19
v25
n2
o5
o1
v61
v67
n2
o5
o1
v19
v26
n2
o5
o1
v61
v68
n2
o5
o1
v19
v27
n2
o5
o1
v61
v69
n2
o5
o1
v19
v28
n2
o5
o1
v61
v70
n2
o5
o1
v19
v29
n2
o5
o1
v61
v71
n2
o5
o1
v19
v30
n2
o5
o1
v61
v72
n2
o5
o1
v19
v31
n2
o5
o1
v61
v73
n2
o5
o1
v19
v32
n2
o5
o1
v61
v74
n2
o5
o1
v19
v33
n2
o5
o1
v61
v75
n2
o5
o1
v19
v34
n2
o5
o1
v61
v76
n2
o5
o1
v19
v35
n2
o5
o1
v61
v77
n2
o5
o1
v19
v36
n2
o5
o1
v61
v78
n2
o5
o1
v19
v37
n2
o5
o1
v61
v79
n2
o5
o1
v19
v38
n2
o5
o1
v61
v80
n2
o5
o1
v19
v39
n2
o5
o1
v61
v81
n2
o5
o1
v19
v40
n2
o5
o1
v61
v82
n2
o5
o1
v19
v41
n2
o5
o1
v61
v83
n2
o5
o1
v20
v21
n2
o5
o1
v62
v63
n2
o5
o1
v20
v22
n2
o5
o1
v62
v64
n2
o5
o1
v20
v23
n2
o5
o1
v62
v65
n2
o5
o1
v20
v24
n2
o5
o1
v62
v66
n2
o5
o1
v20
v25
n2
o5
o1
v62
v67
n2
o5
o1
v20
v26
n2
o5
o1
v62
v68
n2
o5
o1
v20
v27
n2
o5
o1
v62
v69
n2
o5
o1
v20
v28
n2
o5
o1
v62
v70
n2
o5
o1
v20
v29
n2
o5
o1
v62
v71
n2
o5
o1
v20
v30
n2
o5
o1
v62
v72
n2
o5
o1
v20
v31
n2
o5
o1
v62
v73
n2
o5
o1
v20
v32
n2
o5
o1
v62
v74
n2
o5
o1
v20
v33
n2
o5
o1
v62
v75
n2
o5
o1
v20
v34
n2
o5
o1
v62
v76
n2
o5
o1
v20
v35
n2
o5
o1
v62
v77
n2
o5
o1
v20
v36
n2
o5
o1
v62
v78
n2
o5
o1
v20
v37
n2
o5
o1
v62
v79
n2
o5
o1
v20
v38
n2
o5
o1
v62
v80
n2
o5
o1
v20
v39
n2
o5
o1
v62
v81
n2
o5
o1
v20
v40
n2
o5
o1
v62
v82
n2
o5
o1
v20
v41
n2
o5
o1
v62
v83
n2
o5
o1
v21
v22
n2
o5
o1
v63
v64
n2
o5
o1
v21
v23
n2
o5
o1
v63
v65
n2
o5
o1
v21
v24
n2
o5
o1
v63
v66
n2
o5
o1
v21
v25
n2
o5
o1
v63
v67
n2
o5
o1
v21
v26
n2
o5
o1
v63
v68
n2
o5
o1
v21
v27
n2
o5
o1
v63
v69
n2
o5
o1
v21
v28
n2
o5
o1
v63
v70
n2
o5
o1
v21
v29
n2
o5
o1
v63
v71
n2
o5
o1
v21
v30
n2
o5
o1
v63
v72
n2
o5
o1
v21
v31
n2
o5
o1
v63
v73
n2
o5
o1
v21
v32
n2
o5
o1
v63
v74
n2
o5
o1
v21
v33
n2
o5
o1
v63
v75
n2
o5
o1
v21
v34
n2
o5
o1
v63
v76
n2
o5
o1
v21
v35
n2
o5
o1
v63
v77
n2
o5
o1
v21
v36
n2
o5
o1
v63
v78
n2
o5
o1
v21
v37
n2
o5
o1
v63
v79
n2
o5
o1
v21
v38
n2
o5
o1
v63
v80
n2
o5
o1
v21
v39
n2
o5
o1
v63
v81
n2
o5
o1
v21
v40
n2
o5
o1
v63
v82
n2
o5
o1
v21
v41
n2
o5
o1
v63
v83
n2
o5
o1
v22
v23
n2
o5
o1
v64
v65
n2
o5
o1
v22
v24
n2
o5
o1
v64
v66
n2
o5
o1
v22
v25
n2
o5
o1
v64
v67
n2
o5
o1
v22
v26
n2
o5
o1
v64
v68
n2
o5
o1
v22
v27
n2
o5
o1
v64
v69
n2
o5
o1
v22
v28
n2
o5
o1
v64
v70
n2
o5
o1
v22
v29
n2
o5
o1
v64
v71
n2
o5
o1
v22
v30
n2
o5
o1
v64
v72
n2
o5
o1
v22
v31
n2
o5
o1
v64
v73
n2
o5
o1
v22
v32
n2
o5
o1
v64
v74
n2
o5
o1
v22
v33
n2
o5
o1
v64
v75
n2
o5
o1
v22
v34
n2
o5
o1
v64
v76
n2
o5
o1
v22
v35
n2
o5
o1
v64
v77
n2
o5
o1
v22
v36
n2
o5
o1
v64
v78
n2
o5
o1
v22
v37
n2
o5
o1
v64
v79
n2
o5
o1
v22
v38
n2
o5
o1
v64
v80
n2
o5
o1
v22
v39
n2
o5
o1
v64
v81
n2
o5
o1
v22
v40
n2
o5
o1
v64
v82
n2
o5
o1
v22
v41
n2
o5
o1
v64
v83
n2
o5
o1
v23
v24
n2
o5
o1
v65
v66
n2
o5
o1
v23
v25
n2
o5
o1
v65
v67
n2
o5
o1
v23
v26
n2
o5
o1
v65
v68
n2
o5
o1
v23
v27
n2
o5
o1
v65
v69
n2
o5
o1
v23
v28
n2
o5
o1
v65
v70
n2
o5
o1
v23
v29
n2
o5
o1
v65
v71
n2
o5
o1
v23
v30
n2
o5
o1
v65
v72
n2
o5
o1
v23
v31
n2
o5
o1
v65
v73
n2
o5
o1
v23
v32
n2
o5
o1
v65
v74
n2
o5
o1
v23
v33
n2
o5
o1
v65
v75
n2
o5
o1
v23
v34
n2
o5
o1
v65
v76
n2
o5
o1
v23
v35
n2
o5
o1
v65
v77
n2
o5
o1
v23
v36
n2
o5
o1
v65
v78
n2
o5
o1
v23
v37
n2
o5
o1
v65
v79
n2
o5
o1
v23
v38
n2
o5
o1
v65
v80
n2
o5
o1
v23
v39
n2
o5
o1
v65
v81
n2
o5
o1
v23
v40
n2
o5
o1
v65
v82
n2
o5
o1
v23
v41
n2
o5
o1
v65
v83
n2
o5
o1
v24
v25
n2
o5
o1
v66
v67
n2
o5
o1
v24
v26
n2
o5
o1
v66
v68
n2
o5
o1
v24
v27
n2
o5
o1
v66
v69
n2
o5
o1
v24
v28
n2
o5
o1
v66
v70
n2
o5
o1
v24
v29
n2
o5
o1
v66
v71
n2
o5
o1
v24
v30
n2
o5
o1
v66
v72
n2
o5
o1
v24
v31
n2
o5
o1
v66
v73
n2
o5
o1
v24
v32
n2
o5
o1
v66
v74
n2
o5
o1
v24
v33
n2
o5
o1
v66
v75
n2
o5
o1
v24
v34
n2
o5
o1
v66
v76
n2
o5
o1
v24
v35
n2
o5
o1
v66
v77
n2
o5
o1
v24
v36
n2
o5
o1
v66
v78
n2
o5
o1
v24
v37
n2
o5
o1
v66
v79
n2
o5
o1
v24
v38
n2
o5
o1
v66
v80
n2
o5
o1
v24
v39
n2
o5
o1
v66
v81
n2
o5
o1
v24
v40
n2
o5
o1
v66
v82
n2
o5
o1
v24
v41
n2
o5
o1
v66
v83
n2
o5
o1
v25
v26
n2
o5
o1
v67
v68
n2
o5
o1
v25
v27
n2
o5
o1
v67
v69
n2
o5
o1
v25
v28
n2
o5
o1
v67
v70
n2
o5
o1
v25
v29
n2
o5
o1
v67
v71
n2
o5
o1
v25
v30
n2
o5
o1
v67
v72
n2
o5
o1
v25
v31
n2
o5
o1
v67
v73
n2
o5
o1
v25
v32
n2
o5
o1
v67
v74
n2
o5
o1
v25
v33
n2
o5
o1
v67
v75
n2
o5
o1
v25
v34
n2
o5
o1
v67
v76
n2
o5
o1
v25
v35
n2
o5
o1
v67
v77
n2
o5
o1
v25
v36
n2
o5
o1
v67
v78
n2
o5
o1
v25
v37
n2
o5
o1
v67
v79
n2
o5
o1
v25
v38
n2
o5
o1
v67
v80
n2
o5
o1
v25
v39
n2
o5
o1
v67
v81
n2
o5
o1
v25
v40
n2
o5
o1
v67
v82
n2
o5
o1
v25
v41
n2
o5
o1
v67
v83
n2
o5
o1
v26
v27
n2
o5
o1
v68
v69
n2
o5
o1
v26
v28
n2
o5
o1
v68
v70
n2
o5
o1
v26
v29
n2
o5
o1
v68
v71
n2
o5
o1
v26
v30
n2
o5
o1
v68
v72
n2
o5
o1
v26
v31
n2
o5
o1
v68
v73
n2
o5
o1
v26
v32
n2
o5
o1
v68
v74
n2
o5
o1
v26
v33
n2
o5
o1
v68
v75
n2
o5
o1
v26
v34
n2
o5
o1
v68
v76
n2
o5
o1
v26
v35
n2
o5
o1
v68
v77
n2
o5
o1
v26
v36
n2
o5
o1
v68
v78
n2
o5
o1
v26
v37
n2
o5
o1
v68
v79
n2
o5
o1
v26
v38
n2
o5
o1
v68
v80
n2
o5
o1
v26
v39
n2
o5
o1
v68
v81
n2
o5
o1
v26
v40
n2
o5
o1
v68
v82
n2
o5
o1
v26
v41
n2
o5
o1
v68
v83
n2
o5
o1
v27
v28
n2
o5
o1
v69
v70
n2
o5
o1
v27
v29
n2
o5
o1
v69
v71
n2
o5
o1
v27
v30
n2
o5
o1
v69
v72
n2
o5
o1
v27
v31
n2
o5
o1
v69
v73
n2
o5
o1
v27
v32
n2
o5
o1
v69
v74
n2
o5
o1
v27
v33
n2
o5
o1
v69
v75
n2
o5
o1
v27
v34
n2
o5
o1
v69
v76
n2
o5
o1
v27
v35
n2
o5
o1
v69
v77
n2
o5
o1
v27
v36
n2
o5
o1
v69
v78
n2
o5
o1
v27
v37
n2
o5
o1
v69
v79
n2
o5
o1
v27
v38
n2
o5
o1
v69
v80
n2
o5
o1
v27
v39
n2
o5
o1
v69
v81
n2
o5
o1
v27
v40
n2
o5
o1
v69
v82
n2
o5
o1
v27
v41
n2
o5
o1
v69
v83
n2
o5
o1
v28
v29
n2
o5
o1
v70
v71
n2
o5
o1
v28
v30
n2
o5
o1
v70
v72
n2
o5
o1
v28
v31
n2
o5
o1
v70
v73
n2
o5
o1
v28
v32
n2
o5
o1
v70
v74
n2
o5
o1
v28
v33
n2
o5
o1
v70
v75
n2
o5
o1
v28
v34
n2
o5
o1
v70
v76
n2
o5
o1
v28
v35
n2
o5
o1
v70
v77
n2
o5
o1
v28
v36
n2
o5
o1
v70
v78
n2
o5
o1
v28
v37
n2
o5
o1
v70
v79
n2
o5
o1
v28
v38
n2
o5
o1
v70
v80
n2
o5
o1
v28
v39
n2
o5
o1
v70
v81
n2
o5
o1
v28
v40
n2
o5
o1
v70
v82
n2
o5
o1
v28
v41
n2
o5
o1
v70
v83
n2
o5
o1
v29
v30
n2
o5
o1
v71
v72
n2
o5
o1
v29
v31
n2
o5
o1
v71
v73
n2
o5
o1
v29
v32
n2
o5
o1
v71
v74
n2
o5
o1
v29
v33
n2
o5
o1
v71
v75
n2
o5
o1
v29
v34
n2
o5
o1
v71
v76
n2
o5
o1
v29
v35
n2
o5
o1
v71
v77
n2
o5
o1
v29
v36
n2
o5
o1
v71
v78
n2
o5
o1
v29
v37
n2
o5
o1
v71
v79
n2
o5
o1
v29
v38
n2
o5
o1
v71
v80
n2
o5
o1
v29
v39
n2
o5
o1
v71
v81
n2
o5
o1
v29
v40
n2
o5
o1
v71
v82
n2
o5
o1
v29
v41
n2
o5
o1
v71
v83
n2
o5
o1
v30
v31
n2
o5
o1
v72
v73
n2
o5
o1
v30
v32
n2
o5
o1
v72
v74
n2
o5
o1
v30
v33
n2
o5
o1
v72
v75
n2
o5
o1
v30
v34
n2
o5
o1
v72
v76
n2
o5
o1
v30
v35
n2
o5
o1
v72
v77
n2
o5
o1
v30
v36
n2
o5
o1
v72
v78
n2
o5
o1
v30
v37
n2
o5
o1
v72
v79
n2
o5
o1
v30
v38
n2
o5
o1
v72
v80
n2
o5
o1
v30
v39
n2
o5
o1
v72
v81
n2
o5
o1
v30
v40
n2
o5
o1
v72
v82
n2
o5
o1
v30
v41
n2
o5
o1
v72
v83
n2
o5
o1
v31
v32
n2
o5
o1
v73
v74
n2
o5
o1
v31
v33
n2
o5
o1
v73
v75
n2
o5
o1
v31
v34
n2
o5
o1
v73
v76
n2
o5
o1
v31
v35
n2
o5
o1
v73
v77
n2
o5
o1
v31
v36
n2
o5
o1
v73
v78
n2
o5
o1
v31
v37
n2
o5
o1
v73
v79
n2
o5
o1
v31
v38
n2
o5
o1
v73
v80
n2
o5
o1
v31
v39
n2
o5
o1
v73
v81
n2
o5
o1
v31
v40
n2
o5
o1
v73
v82
n2
o5
o1
v31
v41
n2
o5
o1
v73
v83
n2
o5
o1
v32
v33
n2
o5
o1
v74
v75
n2
o5
o1
v32
v34
n2
o5
o1
v74
v76
n2
o5
o1
v32
v35
n2
o5
o1
v74
v77
n2
o5
o1
v32
v36
n2
o5
o1
v74
v78
n2
o5
o1
v32
v37
n2
o5
o1
v74
v79
n2
o5
o1
v32
v38
n2
o5
o1
v74
v80
n2
o5
o1
v32
v39
n2
o5
o1
v74
v81
n2
o5
o1
v32
v40
n2
o5
o1
v74
v82
n2
o5
o1
v32
v41
n2
o5
o1
v74
v83
n2
o5
o1
v33
v34
n2
o5
o1
v75
v76
n2
o5
o1
v33
v35
n2
o5
o1
v75
v77
n2
o5
o1
v33
v36
n2
o5
o1
v75
v78
n2
o5
o1
v33
v37
n2
o5
o1
v75
v79
n2
o5
o1
v33
v38
n2
o5
o1
v75
v80
n2
o5
o1
v33
v39
n2
o5
o1
v75
v81
n2
o5
o1
v33
v40
n2
o5
o1
v75
v82
n2
o5
o1
v33
v41
n2
o5
o1
v75
v83
n2
o5
o1
v34
v35
n2
o5
o1
v76
v77
n2
o5
o1
v34
v36
n2
o5
o1
v76
v78
n2
o5
o1
v34
v37
n2
o5
o1
v76
v79
n2
o5
o1
v34
v38
n2
o5
o1
v76
v80
n2
o5
o1
v34
v39
n2
o5
o1
v76
v81
n2
o5
o1
v34
v40
n2
o5
o1
v76
v82
n2
o5
o1
v34
v41
n2
o5
o1
v76
v83
n2
o5
o1
v35
v36
n2
o5
o1
v77
v78
n2
o5
o1
v35
v37
n2
o5
o1
v77
v79
n2
o5
o1
v35
v38
n2
o5
o1
v77
v80
n2
o5
o1
v35
v39
n2
o5
o1
v77
v81
n2
o5
o1
v35
v40
n2
o5
o1
v77
v82
n2
o5
o1
v35
v41
n2
o5
o1
v77
v83
n2
o5
o1
v36
v37
n2
o5
o1
v78
v79
n2
o5
o1
v36
v38
n2
o5
o1
v78
v80
n2
o5
o1
v36
v39
n2
o5
o1
v78
v81
n2
o5
o1
v36
v40
n2
o5
o1
v78
v82
n2
o5
o1
v36
v41
n2
o5
o1
v78
v83
n2
o5
o1
v37
v38
n2
o5
o1
v79
v80
n2
o5
o1
v37
v39
n2
o5
o1
v79
v81
n2
o5
o1
v37
v40
n2
o5
o1
v79
v82
n2
o5
o1
v37
v41
n2
o5
o1
v79
v83
n2
o5
o1
v38
v39
n2
o5
o1
v80
v81
n2
o5
o1
v38
v40
n2
o5
o1
v80
v82
n2
o5
o1
v38
v41
n2
o5
o1
v80
v83
n2
o5
o1
v39
v40
n2
o5
o1
v81
v82
n2
o5
o1
v39
v41
n2
o5
o1
v81
v83
n2
o5
o1
v40
v41
n2
o5
o1
v82
v83
n2
k83
1
2
3
4
5
6
7
8
9
10
11
12
13
14
15
16
17
18
19
20
21
22
23
24
25
26
27
28
29
30
31
32
33
34
35
36
37
38
39
40
41
42
43
44
45
46
47
48
49
50
51
52
53
54
55
56
57
58
59
60
61
62
63
64
65
66
67
68
69
70
71
72
73
74
75
76
77
78
79
80
81
82
83
J0 2
0 0
42 0
J1 2
1 0
43 0
J2 2
2 0
44 0
J3 2
3 0
45 0
J4 2
4 0
46 0
J5 2
5 0
47 0
J6 2
6 0
48 0
J7 2
7 0
49 0
J8 2
8 0
50 0
J9 2
9 0
51 0
J10 2
10 0
52 0
J11 2
11 0
53 0
J12 2
12 0
54 0
J13 2
13 0
55 0
J14 2
14 0
56 0
J15 2
15 0
57 0
J16 2
16 0
58 0
J17 2
17 0
59 0
J18 2
18 0
60 0
J19 2
19 0
61 0
J20 2
20 0
62 0
J21 2
21 0
63 0
J22 2
22 0
64 0
J23 2
23 0
65 0
J24 2
24 0
66 0
J25 2
25 0
67 0
J26 2
26 0
68 0
J27 2
27 0
69 0
J28 2
28 0
70 0
J29 2
29 0
71 0
J30 2
30 0
72 0
J31 2
31 0
73 0
J32 2
32 0
74 0
J33 2
33 0
75 0
J34 2
34 0
76 0
J35 2
35 0
77 0
J36 2
36 0
78 0
J37 2
37 0
79 0
J38 2
38 0
80 0
J39 2
39 0
81 0
J40 2
40 0
82 0
J41 2
41 0
83 0
G0 84
0 0
1 0
2 0
3 0
4 0
5 0
6 0
7 0
8 0
9 0
10 0
11 0
12 0
13 0
14 0
15 0
16 0
17 0
18 0
19 0
20 0
21 0
22 0
23 0
24 0
25 0
26 0
27 0
28 0
29 0
30 0
31 0
32 0
33 0
34 0
35 0
36 0
37 0
38 0
39 0
40 0
41 0
42 0
43 0
44 0
45 0
46 0
47 0
48 0
49 0
50 0
51 0
52 0
53 0
54 0
55 0
56 0
57 0
58 0
59 0
60 0
61 0
62 0
63 0
64 0
65 0
66 0
67 0
68 0
69 0
70 0
71 0
72 0
73 0
74 0
75 0
76 0
77 0
78 0
79 0
80 0
81 0
82 0
83 0
